param n := 2;

param m := 2;

param K := 20;

param a :=
1 	 0.419195
2 	 0.685220
;
 param A :=
[1, *, *]:  1	2	:=
1	-0.591096	-0.945225	
2	0.756235	0.340935	

[2, *, *]:  1	2	:=
1	-0.165390	-0.719226	
2	0.117380	-0.603797	
;